# Solution for model GasLib-40
# Objective value = 1.3010923870110998e+01
loadshed[innode_1] 0
loadshed[innode_2] 0
loadshed[innode_3] 0
loadshed[innode_4] 0
loadshed[innode_5] 0
loadshed[innode_6] 0
loadshed[innode_7] 0
loadshed[innode_8] 0
loadshed[source_1] -2.0802676700147527e-01
loadshed[source_2] -3.8342739034457063e-02
loadshed[source_3] 3.2867010068966940e-01
loadshed[sink_1] 0
loadshed[sink_2] 0
loadshed[sink_3] 0
loadshed[sink_4] 0
loadshed[sink_5] 0
loadshed[sink_6] 0
loadshed[sink_7] 0
loadshed[sink_8] 0
loadshed[sink_9] 0
loadshed[sink_10] 0
loadshed[sink_11] 0
loadshed[sink_12] 7.9557241498767883e-01
loadshed[sink_13] 0
loadshed[sink_14] 0
loadshed[sink_15] 0
loadshed[sink_16] 0
loadshed[sink_17] 0
loadshed[sink_18] 0
loadshed[sink_19] 0
loadshed[sink_20] 0
loadshed[sink_21] 0
loadshed[sink_22] 0
loadshed[sink_23] 0
loadshed[sink_24] 0
loadshed[sink_25] 0
loadshed[sink_26] 0
loadshed[sink_27] 0
loadshed[sink_28] 0
loadshed[sink_29] 0
flow[source_1,sink_3] 1.9097728715825406e+02
flow[innode_1,sink_16] 1.6354166666666970e+01
flow[innode_6,sink_13] 8.3484364041823156e+00
flow[sink_13,sink_14] -8.0057302624843523e+00
flow[sink_14,sink_10] -2.4359896929151020e+01
flow[sink_25,sink_26] 1.7913849463877426e+02
flow[sink_26,sink_9] 1.5053074279655635e+02
flow[sink_9,sink_18] 1.3417657612988970e+02
flow[sink_26,sink_4] 1.2253585175551677e+01
flow[sink_4,sink_20] -2.0454748157787208e+01
flow[sink_18,sink_6] 1.1782240946322304e+02
flow[sink_25,innode_8] -1.5826895382491767e+02
flow[sink_6,sink_7] 6.8759909463222812e+01
flow[sink_6,sink_22] 3.2708333333333641e+01
flow[sink_7,sink_24] 3.6051576129889007e+01
flow[sink_22,sink_1] 1.6354166666666970e+01
flow[sink_24,sink_21] 1.9697409463222336e+01
flow[sink_21,sink_12] 3.3432427965556690e+00
flow[sink_7,sink_5] 1.6354166666667368e+01
flow[sink_5,sink_17] 0
flow[sink_17,sink_4] -1.6354166666672256e+01
flow[sink_17,sink_8] 0
flow[sink_3,sink_23] 16.3541666666697
flow[sink_8,sink_20] -1.6354166666668334e+01
flow[sink_25,sink_20] 5.3163081491122227e+01
flow[sink_25,sink_15] -9.8735225375828065e+01
flow[sink_15,sink_29] -6.4003725478164384e+01
flow[sink_29,sink_28] 1.6354166666667879e+01
flow[sink_29,sink_2] 6.7439833230997010e+01
flow[sink_2,sink_15] 5.1085666564330346e+01
flow[sink_29,innode_7] -1.6415189204249594e+02
flow[innode_4,sink_19] 8.9776563595818047e+01
flow[sink_19,innode_3] 3.5829819785656895e+01
flow[innode_4,innode_5] 1.6354166666679703e+01
flow[sink_27,innode_5] -1.6354166666679703e+01
flow[sink_27,sink_19] 0
flow[sink_10,sink_11] 3.2708333333333641e+01
flow[sink_10,innode_2] -3.7592577143494431e+01
flow[sink_10,innode_3] -3.5829819785656895e+01
flow[innode_6,sink_25] -8.3484364041823156e+00
flow[sink_11,innode_1] 1.6354166666666970e+01
flow[sink_19,innode_2] 3.7592577143494431e+01
flow[source_3,innode_4] 1.0613073026249775e+02
flow[source_2,innode_7] 1.6415189204249594e+02
flow[sink_3,innode_8] 1.5826895382491767e+02
pressure[innode_1] 7.5237548384679741e+01
pressure[innode_2] 77.3761726567456
pressure[innode_3] 77.2968315781172
pressure[innode_4] 81.01325
pressure[innode_5] 8.1002000741808772e+01
pressure[innode_6] 7.4268757370887030e+01
pressure[innode_7] 81.01325
pressure[innode_8] 8.0374885884998008e+01
pressure[source_1] 81.01325
pressure[source_2] 81.01325
pressure[source_3] 81.01325
pressure[sink_1] 4.2540289744331730e+01
pressure[sink_2] 7.4914502865952215e+01
pressure[sink_3] 8.0374885884998008e+01
pressure[sink_4] 6.0094185862768164e+01
pressure[sink_5] 3.6895887669712195e+01
pressure[sink_6] 44.6413673547191
pressure[sink_7] 4.3697457696606911e+01
pressure[sink_8] 6.0455185873423268e+01
pressure[sink_9] 5.2642484930155561e+01
pressure[sink_10] 7.5389249692283286e+01
pressure[sink_11] 7.5237548384679741e+01
pressure[sink_12] 1.01325
pressure[sink_13] 74.2227338361441
pressure[sink_14] 7.4237060772386258e+01
pressure[sink_15] 7.4747719423719232e+01
pressure[sink_16] 7.4215898549862061e+01
pressure[sink_17] 59.4691835389656
pressure[sink_18] 4.7787576490801555e+01
pressure[sink_19] 77.3761726567456
pressure[sink_20] 6.1594841297011556e+01
pressure[sink_21] 2.2029587634054955e+00
pressure[sink_22] 4.3604058886686744e+01
pressure[sink_23] 8.0210167873338222e+01
pressure[sink_24] 2.4210892721346622e+00
pressure[sink_25] 7.4268757370887030e+01
pressure[sink_26] 6.1652138395681988e+01
pressure[sink_27] 8.0866291377726043e+01
pressure[sink_28] 7.6327547678544320e+01
pressure[sink_29] 76.6228299521615
interdiction[source_1,sink_3] 0
interdiction[innode_1,sink_16] 0
interdiction[innode_6,sink_13] 0
interdiction[sink_13,sink_14] 0
interdiction[sink_14,sink_10] 0
interdiction[sink_25,sink_26] 0
interdiction[sink_26,sink_9] 0
interdiction[sink_9,sink_18] 0
interdiction[sink_26,sink_4] 0
interdiction[sink_4,sink_20] 0
interdiction[sink_18,sink_6] 0
interdiction[sink_25,innode_8] 0
interdiction[sink_6,sink_7] 0
interdiction[sink_6,sink_22] 0
interdiction[sink_7,sink_24] 0
interdiction[sink_22,sink_1] 0
interdiction[sink_24,sink_21] 0
interdiction[sink_21,sink_12] 0
interdiction[sink_7,sink_5] 0
interdiction[sink_5,sink_17] 1
interdiction[sink_17,sink_4] 0
interdiction[sink_17,sink_8] 1
interdiction[sink_3,sink_23] 0
interdiction[sink_8,sink_20] 0
interdiction[sink_25,sink_20] 0
interdiction[sink_25,sink_15] 0
interdiction[sink_15,sink_29] 0
interdiction[sink_29,sink_28] 0
interdiction[sink_29,sink_2] 0
interdiction[sink_2,sink_15] 0
interdiction[sink_29,innode_7] 0
interdiction[innode_4,sink_19] 0
interdiction[sink_19,innode_3] 0
interdiction[innode_4,innode_5] 0
interdiction[sink_27,innode_5] 0
interdiction[sink_27,sink_19] 1
interdiction[sink_10,sink_11] 0
interdiction[sink_10,innode_2] 0
interdiction[sink_10,innode_3] 0
interdiction[innode_6,sink_25] 0
interdiction[sink_11,innode_1] 0
interdiction[sink_19,innode_2] 0
interdiction[source_3,innode_4] 0
interdiction[source_2,innode_7] 0
interdiction[sink_3,innode_8] 0
WCcheckFlow[source_1,sink_3] 39
WCcheckFlow[innode_1,sink_16] 1
WCcheckFlow[innode_6,sink_13] 13
WCcheckFlow[sink_13,sink_14] 12
WCcheckFlow[sink_14,sink_10] 11
WCcheckFlow[sink_25,sink_26] 15
WCcheckFlow[sink_26,sink_9] 10
WCcheckFlow[sink_9,sink_18] 9
WCcheckFlow[sink_26,sink_4] 4
WCcheckFlow[sink_4,sink_20] 2
WCcheckFlow[sink_18,sink_6] 8
WCcheckFlow[sink_25,innode_8] -36
WCcheckFlow[sink_6,sink_7] 5
WCcheckFlow[sink_6,sink_22] 2
WCcheckFlow[sink_7,sink_24] 3
WCcheckFlow[sink_22,sink_1] 1
WCcheckFlow[sink_24,sink_21] 2
WCcheckFlow[sink_21,sink_12] 1
WCcheckFlow[sink_7,sink_5] 1
WCcheckFlow[sink_5,sink_17] 0
WCcheckFlow[sink_17,sink_4] -1
WCcheckFlow[sink_17,sink_8] 0
WCcheckFlow[sink_3,sink_23] 1
WCcheckFlow[sink_8,sink_20] -1
WCcheckFlow[sink_25,sink_20] 0
WCcheckFlow[sink_25,sink_15] 6
WCcheckFlow[sink_15,sink_29] 5
WCcheckFlow[sink_29,sink_28] 1
WCcheckFlow[sink_29,sink_2] 1
WCcheckFlow[sink_2,sink_15] 0
WCcheckFlow[sink_29,innode_7] 2
WCcheckFlow[innode_4,sink_19] -4
WCcheckFlow[sink_19,innode_3] -5
WCcheckFlow[innode_4,innode_5] 2
WCcheckFlow[sink_27,innode_5] -1
WCcheckFlow[sink_27,sink_19] 0
WCcheckFlow[sink_10,sink_11] 3
WCcheckFlow[sink_10,innode_2] 1
WCcheckFlow[sink_10,innode_3] 6
WCcheckFlow[innode_6,sink_25] -14
WCcheckFlow[sink_11,innode_1] 2
WCcheckFlow[sink_19,innode_2] 0
WCcheckFlow[source_3,innode_4] -1
WCcheckFlow[source_2,innode_7] -1
WCcheckFlow[sink_3,innode_8] 37
